Read MPS format model from file dat/rmp/DER_24_8192_30.mps
Reading time = 0.35 seconds
: 8216 rows, 38984 columns, 879914 nonzeros
Gurobi Optimizer version 9.0.0 build v9.0.0rc2 (linux64)
Optimize a model with 8216 rows, 38984 columns and 879914 nonzeros
Model fingerprint: 0xdd340055
Coefficient statistics:
  Matrix range     [3e-04, 1e+01]
  Objective range  [2e-01, 1e+03]
  Bounds range     [5e+04, 5e+04]
  RHS range        [1e+00, 1e+00]
Ordering time: 0.01s

Barrier statistics:
 AA' NZ     : 1.863e+05
 Factor NZ  : 2.619e+05 (roughly 20 MBytes of memory)
 Factor Ops : 9.097e+06 (less than 1 second per iteration)
 Threads    : 1

                  Objective                Residual
Iter       Primal          Dual         Primal    Dual     Compl     Time
   0   6.03614219e+08 -4.00007431e+07  1.77e+07 1.18e-02  3.75e+05     0s
   1   1.56539631e+07 -8.32877589e+06  4.38e+05 1.82e-12  9.48e+03     0s
   2   7.82075781e+05 -4.96284360e+06  2.17e+04 3.64e-12  5.82e+02     0s
   3   1.29556436e+04 -2.59866879e+06  1.11e-10 3.64e-12  6.70e+01     0s
   4   1.19786864e+04 -2.20373995e+03  1.12e-10 2.73e-12  3.64e-01     0s
   5   1.19006814e+04  9.20881802e+03  6.89e-11 2.73e-12  6.90e-02     0s
   6   1.17787051e+04  1.13233600e+04  8.74e-11 1.82e-12  1.17e-02     0s
   7   1.17008845e+04  1.15872643e+04  3.24e-10 1.82e-12  2.91e-03     1s
   8   1.16587207e+04  1.16136256e+04  2.44e-10 1.82e-12  1.16e-03     1s
   9   1.16401079e+04  1.16216931e+04  5.27e-10 1.82e-12  4.72e-04     1s
  10   1.16329815e+04  1.16242237e+04  6.73e-10 3.64e-12  2.25e-04     1s
  11   1.16299173e+04  1.16257986e+04  8.14e-10 1.82e-12  1.06e-04     1s
  12   1.16293082e+04  1.16261472e+04  3.79e-10 9.09e-13  8.10e-05     1s
  13   1.16289835e+04  1.16263442e+04  3.64e-10 1.82e-12  6.77e-05     1s
  14   1.16285405e+04  1.16264431e+04  5.66e-10 1.82e-12  5.38e-05     1s
  15   1.16281911e+04  1.16267117e+04  1.13e-09 1.82e-12  3.79e-05     1s
  16   1.16278486e+04  1.16268494e+04  9.40e-10 1.82e-12  2.56e-05     1s
  17   1.16277051e+04  1.16269848e+04  6.04e-10 1.82e-12  1.85e-05     1s
  18   1.16276010e+04  1.16270552e+04  5.14e-10 1.82e-12  1.40e-05     1s
  19   1.16275111e+04  1.16271186e+04  8.46e-10 1.82e-12  1.01e-05     1s
  20   1.16274448e+04  1.16271537e+04  8.89e-10 1.82e-12  7.46e-06     1s
  21   1.16273897e+04  1.16271749e+04  9.12e-10 1.82e-12  5.51e-06     1s
  22   1.16273644e+04  1.16271860e+04  9.45e-10 1.82e-12  4.57e-06     1s
  23   1.16273284e+04  1.16272080e+04  1.34e-09 1.82e-12  3.09e-06     1s
  24   1.16273086e+04  1.16272202e+04  1.72e-09 1.82e-12  2.27e-06     1s
  25   1.16272915e+04  1.16272309e+04  2.04e-09 1.82e-12  1.55e-06     1s
  26   1.16272760e+04  1.16272333e+04  3.35e-09 1.82e-12  1.09e-06     1s
  27   1.16272692e+04  1.16272401e+04  3.46e-09 1.82e-12  7.46e-07     1s
  28   1.16272603e+04  1.16272427e+04  2.66e-09 1.82e-12  4.51e-07     1s
  29   1.16272562e+04  1.16272438e+04  1.35e-08 1.82e-12  3.20e-07     1s
  30   1.16272522e+04  1.16272448e+04  1.86e-08 1.82e-12  1.92e-07     2s
  31   1.16272508e+04  1.16272457e+04  1.51e-08 1.82e-12  1.32e-07     2s
  32   1.16272496e+04  1.16272460e+04  3.32e-08 1.82e-12  9.14e-08     2s
  33   1.16272486e+04  1.16272463e+04  3.80e-08 1.82e-12  5.84e-08     2s
  34   1.16272471e+04  1.16272464e+04  1.40e-08 1.82e-12  1.84e-08     2s
  35   1.16272470e+04  1.16272467e+04  3.24e-08 3.64e-12  6.70e-09     2s
  36   1.16272467e+04  1.16272467e+04  3.10e-07 3.64e-12  4.79e-10     2s

Barrier solved model in 36 iterations and 1.76 seconds
Optimal objective 1.16272467e+04

Solve time: 1.759403694
Barrier iterations: 36
